(set-info :source |printed by MathSAT|)
(declare-fun ldv_module_refcounter () (_ BitVec 32))

*:
(assert (let ((.def_26906 (= ldv_module_refcounter (_ bv1 32)))).def_26906))
(assert (let ((.def_26911 (bvslt (_ bv1 32) ldv_module_refcounter))).def_26911))

